Normalized Data/p01_110_tsplib0_normalized_splitx10_0.vrp
NAME:p01_110_tsplib0_NORMALIZED_splitx10_
BEST_KNOWN: 0
COMMENT: 0
DIMENSION: 112
CAPACITY: 1000
EDGE_WEIGHT_FORMAT: FUNCTION
EDGE_WEIGHT_TYPE: EXACT_2D
NODE_COORD_SECTION
1 0.00000 0.00000
2 7 12
3 7 12
4 7 12
5 7 12
6 19 9
7 19 9
8 19 9
9 22 24
10 22 24
11 -10 -14
12 10 -10
13 10 -10
14 10 -10
15 10 -10
16 -9 7
17 -9 7
18 -9 7
19 -9 7
20 -13 23
21 1 22
22 22 -7
23 22 -7
24 12 1
25 12 1
26 12 1
27 12 1
28 1 -8
29 1 -8
30 1 -8
31 -25 -15
32 -18 2
33 6 -24
34 6 -24
35 22 1
36 22 1
37 22 1
38 -3 -17
39 -13 -7
40 -17 -27
41 -17 -27
42 -17 -27
43 -17 -27
44 27 18
45 32 2
46 12 17
47 12 17
48 -14 17
49 -14 17
50 -22 12
51 -23 -2
52 -23 -2
53 -23 -2
54 -3 28
55 -3 28
56 13 27
57 13 27
58 13 27
59 28 8
60 28 -13
61 7 29
62 7 29
63 7 29
64 7 29
65 8 6
66 8 6
67 8 6
68 8 6
69 16 -30
70 16 -30
71 16 -30
72 16 -30
73 31 -7
74 31 -7
75 32 23
76 32 23
77 32 23
78 32 23
79 33 29
80 2 -18
81 2 -18
82 2 -18
83 15 -5
84 29 -25
85 -25 -34
86 -25 -34
87 -25 -34
88 -25 -34
89 -20 -23
90 -9 -30
91 -25 24
92 -25 24
93 0 -25
94 0 -25
95 9 -30
96 9 -30
97 9 -30
98 9 -30
99 2 -1
100 2 -1
101 2 -1
102 -5 -8
103 -5 15
104 -5 15
105 -5 15
106 -5 15
107 18 -12
108 18 -12
109 18 -12
110 18 -12
111 26 -3
112 26 -3
DEMAND_SECTION
1 0
2 50
3 10
4 10
5 10
6 10
7 10
8 10
9 10
10 10
11 50
12 50
13 10
14 10
15 10
16 50
17 10
18 10
19 10
20 50
21 10
22 10
23 10
24 50
25 10
26 10
27 10
28 10
29 10
30 10
31 50
32 50
33 50
34 10
35 10
36 10
37 10
38 10
39 50
40 50
41 10
42 10
43 10
44 50
45 10
46 50
47 10
48 50
49 10
50 50
51 50
52 10
53 10
54 50
55 10
56 50
57 10
58 10
59 10
60 10
61 50
62 10
63 10
64 10
65 50
66 10
67 10
68 10
69 50
70 10
71 10
72 10
73 10
74 10
75 50
76 10
77 10
78 10
79 50
80 50
81 10
82 10
83 50
84 50
85 50
86 10
87 10
88 10
89 10
90 10
91 50
92 10
93 50
94 10
95 50
96 10
97 10
98 10
99 10
100 10
101 10
102 50
103 10
104 10
105 10
106 10
107 50
108 10
109 10
110 10
111 50
112 10
DEPOT_SECTION
1
-1
EOF