Normalized Data/p01_110_tsplib0_normalized_splitx10_0.sol
111 -17 15 16 18 47 48 19 90 91 49 31 50 51 52 30 88 86 87 85 84 40 41 39 42 89 93 92 37 10 38 101 -28 27 29 80 81 79 33 32 96 94 97 95 71 69 68 70 83 59 72 73 44 58 43 77 75 76 74 78 9 8 56 57 55 60 61 62 63 54 53 20 105 102 104 103 -67 65 66 64 4 3 1 2 46 45 7 6 5 36 35 34 111 110 21 22 106 109 107 108 12 13 11 14 82 24 26 25 23 100 98 99 0 





OBJ=
451.531
BEST_KNOWN=
0.000